9515
1 0 0 1 0 0 0 1 0 1 1 0 0 0 1 1 1 1 0 1
3 19 15 10 7 19 17 9 15 0 0 0 17 0 7 19 17 3 3 7 0 17 16 17 14 19 17 9 7 0 7 19 17 0 10 16 19 0 19 9 10 0 19 9 17 7 3 16 17 7 3 7 17 0 14 19 17 14 16 14 14 19 17 10 0 14 9 17 17 14 10 15 9 19 14 10 0 19 15 10